c 40 AngularJS
c 60 Maven
c 22 Server
c 25 PostgreSQL
c 4 ModuleTobeInstall
c 31 nohbcache
c 70 GAtling
c 68 False
c 20 Consul
c 71 oauth2
c 56 MessageBroker
c 21 SearchEngine
c 62 ServerPortServeri18n
c 52 MySql
c 30 MySQL
c 50 Client
c 64 EhCache
c 2 AuthenticationType
c 8 ServerSideOption
c 65 LibSass
c 32 HibernateCache
c 12 JWT
c 39 HTTPSession
c 43 SwaggerCodegen
c 23 SQL
c 15 ApplicationType
c 37 Angular4
c 3 Uaa
c 57 Oracle12c
c 29 MicroserviceApplication
c 66 MongoDB
c 38 ClientFrameWork
c 5 Application
c 26 Cucumber
c 45 MariaDBDev
c 28 H2InMemory
c 47 Gatling
c 54 PackageName
c 58 Cassandra
c 42 SocialLogIn
c 59 H2DiskBased
c 49 ModuleNameClient
c 7 ProDataBaseType
c 46 ClusteredHttpSession
c 51 MsSql
c 6 MsSQL
c 35 Oracle
c 24 DataBaseType
c 1 OAuth2
c 61 jhipster
c 10 ServiceDiscoveryType
c 17 MicroserviceGateway
c 63 InternationalizationSupport
c 36 MariaDB
c 44 nodbtype
c 41 Base
c 53 WebSocket
c 16 Monolithic
c 69 Uaaserver
c 55 uaaBaseName
c 13 DevDataBaseType
c 67 HazelCast
c 27 TestFramework
c 14 UaaServer
c 19 BuildTool
c 48 PostgreSQLDev
c 33 Protractor
c 18 Gradle
c 34 Infinispan
c 11 Eureka
p cnf 71 538
-1 2 0
-3 2 0
-4 5 0
-6 7 0
-2 8 0
-9 10 0
-11 10 0
-3 2 0
-12 2 0
-7 8 0
-13 8 0
-14 15 0
-16 15 0
-15 5 0
-17 15 0
-18 19 0
-20 10 0
-16 15 0
-7 8 0
-21 22 0
-23 24 0
-25 7 0
-26 27 0
-28 13 0
-17 15 0
-29 15 0
-14 15 0
-30 7 0
-16 15 0
-31 32 0
-33 27 0
-4 5 0
-34 32 0
-14 15 0
-16 15 0
-1 2 0
-16 15 0
-13 8 0
-35 7 0
-36 7 0
-37 38 0
-29 15 0
-16 15 0
-39 2 0
-16 15 0
-29 15 0
-17 15 0
-40 38 0
-20 10 0
-5 41 0
-42 22 0
-6 7 0
-43 22 0
-44 24 0
-8 22 0
-40 38 0
-24 8 0
-44 24 0
-29 15 0
-18 19 0
-10 8 0
-40 38 0
-12 2 0
-29 15 0
-16 15 0
-45 13 0
-25 7 0
-46 22 0
-47 27 0
-20 10 0
-14 15 0
-33 27 0
-48 13 0
-26 27 0
-26 27 0
-49 50 0
-3 2 0
-19 8 0
-25 7 0
-26 27 0
-4 5 0
-10 8 0
-34 32 0
-39 2 0
-14 15 0
-8 22 0
-51 13 0
-52 13 0
-53 22 0
-7 8 0
-17 15 0
-17 15 0
-33 27 0
-3 2 0
-54 22 0
-55 22 0
-56 22 0
-37 38 0
-33 27 0
-44 24 0
-57 13 0
-30 7 0
-26 27 0
-2 8 0
-58 24 0
-48 13 0
-29 15 0
-36 7 0
-11 10 0
-40 38 0
-58 24 0
-17 15 0
-16 15 0
-39 2 0
-59 13 0
-9 10 0
-60 19 0
-47 27 0
-22 41 0
-26 27 0
-55 22 0
-29 15 0
-1 2 0
-12 2 0
-14 15 0
-41 61 0
-21 22 0
-1 2 0
-45 13 0
-62 22 0
-52 13 0
-20 10 0
-26 27 0
-10 8 0
-59 13 0
-15 5 0
-39 2 0
-11 10 0
-39 2 0
-14 15 0
-26 27 0
-15 5 0
-8 22 0
-33 27 0
-33 27 0
-17 15 0
-52 13 0
-27 5 0
-58 24 0
-1 2 0
-15 5 0
-47 27 0
-17 15 0
-15 5 0
-26 27 0
-14 15 0
-38 50 0
-27 5 0
-63 41 0
-12 2 0
-64 32 0
-39 2 0
-65 50 0
-17 15 0
-60 19 0
-33 27 0
-66 24 0
-30 7 0
-48 13 0
-18 19 0
-47 27 0
-59 13 0
-29 15 0
-32 8 0
-21 22 0
-46 22 0
-16 15 0
-56 22 0
-33 27 0
-17 15 0
-18 19 0
-1 2 0
-33 27 0
-64 32 0
-49 50 0
-39 2 0
-11 10 0
-23 24 0
-63 41 0
-47 27 0
-33 27 0
-11 10 0
-66 24 0
-54 22 0
-6 7 0
-14 15 0
-37 38 0
-64 32 0
-27 5 0
-4 5 0
-50 41 0
-18 19 0
-40 38 0
-34 32 0
-45 13 0
-47 27 0
-5 41 0
-11 10 0
-3 2 0
-18 19 0
-14 15 0
-40 38 0
-51 13 0
-66 24 0
-28 13 0
-4 5 0
-16 15 0
-62 22 0
-47 27 0
-18 19 0
-60 19 0
-23 24 0
-67 32 0
-24 8 0
-33 27 0
-65 50 0
-2 8 0
-19 8 0
-35 7 0
-9 10 0
-43 22 0
-57 13 0
-40 38 0
-16 15 0
-47 27 0
-12 2 0
-23 24 0
-55 22 0
-16 15 0
-7 8 0
-27 5 0
-29 15 0
-62 22 0
-49 50 0
-35 7 0
-12 2 0
-5 41 0
-4 5 0
-26 27 0
-56 22 0
-26 27 0
-15 5 0
-22 41 0
-9 10 0
-1 2 0
-47 27 0
-17 15 0
-67 32 0
-12 2 0
-3 2 0
-35 7 0
-26 27 0
-33 27 0
-41 61 0
-65 50 0
-18 19 0
-29 15 0
-22 41 0
-19 8 0
-32 8 0
-47 27 0
-34 32 0
-1 2 0
-4 5 0
-60 19 0
-13 8 0
-29 15 0
-50 41 0
-50 41 0
-38 50 0
-26 27 0
-3 2 0
-24 8 0
-16 15 0
-38 50 0
-21 22 0
-29 15 0
-20 10 0
-36 7 0
-27 5 0
-63 41 0
-9 10 0
-31 32 0
-56 22 0
-60 19 0
-49 50 0
-43 22 0
-43 22 0
-46 22 0
-60 19 0
-27 5 0
-16 15 0
-32 8 0
-33 27 0
-14 15 0
-28 13 0
-20 10 0
-44 24 0
-55 22 0
-6 7 0
-54 22 0
-24 8 0
-10 8 0
-47 27 0
-52 13 0
-60 19 0
-57 13 0
-15 5 0
-42 22 0
-66 24 0
-36 7 0
-17 15 0
-63 41 0
-37 38 0
-33 27 0
-29 15 0
-5 41 0
-14 15 0
-29 15 0
-37 38 0
-30 7 0
-59 13 0
-15 5 0
-58 24 0
-47 27 0
-9 10 0
-14 15 0
-28 13 0
-14 15 0
-64 32 0
-2 8 0
-13 8 0
-27 5 0
-12 2 0
-53 22 0
-54 22 0
-17 15 0
-26 27 0
-37 38 0
-50 41 0
-31 32 0
-9 10 0
-42 22 0
-31 32 0
-17 15 0
-17 15 0
-40 38 0
-51 13 0
-46 22 0
-4 5 0
-26 27 0
-22 41 0
-62 22 0
-8 22 0
-33 27 0
-16 15 0
-27 5 0
-33 27 0
-14 15 0
-25 7 0
-19 8 0
-47 27 0
-11 10 0
-47 27 0
-53 22 0
-45 13 0
-26 27 0
-20 10 0
-11 10 0
-17 15 0
-47 27 0
-9 10 0
-29 15 0
-65 50 0
-67 32 0
-14 15 0
-51 13 0
-42 22 0
-53 22 0
-47 27 0
-37 38 0
-3 2 0
-67 32 0
-20 10 0
-57 13 0
-39 2 0
-37 38 0
-29 15 0
-60 19 0
-38 50 0
-32 8 0
-48 13 0
61 0
-50 49 0
-22 62 0
-8 2 0
-15 17 16 29 14 0
-17 -14 0
-16 -29 0
-17 -29 0
-17 -16 0
-16 -14 0
-29 -14 0
-22 55 0
-7 30 6 35 36 25 0
-6 -25 0
-30 -6 0
-30 -35 0
-35 -36 0
-35 -25 0
-30 -36 0
-6 -35 0
-6 -36 0
-36 -25 0
-30 -25 0
-41 5 0
-5 15 0
68 61 0
-22 54 0
-19 18 60 0
-18 -60 0
-5 27 0
-8 10 0
-10 20 11 9 0
-20 -11 0
-11 -9 0
-20 -9 0
-24 23 58 44 66 0
-58 -66 0
-23 -44 0
-23 -58 0
-23 -66 0
-58 -44 0
-44 -66 0
-38 40 37 0
-40 -37 0
-50 38 0
-13 57 28 48 45 51 52 59 0
-28 -59 0
-57 -45 0
-57 -52 0
-48 -59 0
-45 -52 0
-28 -52 0
-57 -51 0
-48 -45 0
-51 -52 0
-51 -59 0
-57 -28 0
-57 -48 0
-57 -59 0
-45 -51 0
-28 -45 0
-28 -48 0
-48 -52 0
-28 -51 0
-48 -51 0
-52 -59 0
-45 -59 0
-8 19 0
-32 34 67 64 31 0
-67 -64 0
-34 -31 0
-64 -31 0
-67 -31 0
-34 -67 0
-34 -64 0
-2 39 1 3 12 0
-39 -3 0
-3 -12 0
-39 -1 0
-39 -12 0
-1 -3 0
-1 -12 0
-61 41 0
-22 14 0
-29 24 0
-69 24 0
-17 24 0
-23 -6 59 28 51 0
42 0
43 0
-17 67 0
-17 -3 55 0
-29 -3 55 0
-44 -7 0
-13 0
-32 0
26 0
-4 0
53 0
24 23 58 66 0
-23 21 56 43 0
70 0
-65 0
-23 17 32 0
-71 24 23 66 0
-11 14 12 0
-23 -35 59 28 57 0
-23 -30 59 28 52 0
-23 -36 59 28 45 0
-21 0
-66 -7 0
-13 0
-32 0
-16 32 46 56 43 0
-16 -67 46 56 43 0
-17 32 46 56 43 0
-17 -67 46 56 43 0
-29 26 47 0
-14 26 47 0
56 0
58 -16 -39 42 56 43 0
58 -16 -12 42 56 43 0
-23 30 6 36 25 35 0
-16 11 12 39 1 0
33 0
-17 12 3 0
-29 12 3 0
-23 -25 59 28 48 0
-16 -10 11 0
-58 -7 0
-13 0
-32 0
50 0
46 0
-16 53 56 43 0
-17 53 56 43 0
